32
11
14
0
56
80
20
0
49
27
36
21
15
16
0
16
0
26
32
39
18
33
10
9
11
16
20
87
28
17
103
44
35
0
0
95
28
34
31
12
11
29
18
166
14
0
19
17
8
12
32
48
19
36
17
17
0
24
12
22
18
59
28
51
22
0
0
52
10
19
0
109
30
19
66
26
16
33
13
30
42
16
10
12
48
0
25
0
0
20
19
45
0
27
51
17
11
18
0
73
